73 23 15 40 40 20 20 40 40 20 40 40 30 20 30 40 40 20 200 200 200 200 200 200 200 200
2.00 3.00 3.00 4.00 5.00 5.00 7.00 7.00 10.00 10.00 26.00 24.00 28.00 27.00 30.00 27.00 30.00 32.00 23.00 21.00 23.00 21.00 26.00 25.00 23.00 27.00 25.00 30.00 28.00 48.00 44.00 46.00 43.00 51.00 46.00 51.00 53.00 50.00 39.00 37.00 37.00 35.00 40.00 40.00 39.00 36.00 41.00 37.00 40.00 18.00 73.00 71.00 55.00 46.00 79.00 68.00 50.00 80.00 73.00 13.00 49.00 19.00 73.00 70.00 45.00
5.00 3.00 5.00 5.00 6.00 7.00 7.00 10.00 10.00 25.00 23.00 27.00 26.00 29.00 27.00 30.00 31.00 25.00 23.00 24.00 22.00 28.00 26.00 25.00 28.00 26.00 32.00 29.00 49.00 46.00 47.00 44.00 53.00 47.00 52.00 54.00 51.00 41.00 39.00 39.00 37.00 42.00 42.00 40.00 38.00 43.00 38.00 42.00 20.00 75.00 73.00 56.00 45.00 81.00 70.00 51.00 82.00 75.00 15.00 50.00 21.00 75.00 72.00 45.00
2.00 1.00 3.00 2.00 4.00 5.00 7.00 7.00 25.00 21.00 27.00 26.00 29.00 25.00 28.00 30.00 20.00 18.00 19.00 17.00 23.00 22.00 20.00 23.00 21.00 27.00 24.00 44.00 41.00 42.00 39.00 48.00 42.00 47.00 49.00 46.00 36.00 34.00 35.00 32.00 37.00 37.00 36.00 33.00 38.00 34.00 37.00 16.00 70.00 68.00 51.00 43.00 76.00 66.00 46.00 77.00 70.00 11.00 46.00 17.00 70.00 67.00 42.00
3.00 2.00 2.00 4.00 4.00 7.00 7.00 24.00 21.00 26.00 25.00 27.00 25.00 27.00 29.00 21.00 20.00 21.00 19.00 24.00 23.00 21.00 24.00 23.00 28.00 25.00 45.00 42.00 44.00 41.00 49.00 43.00 48.00 50.00 47.00 38.00 36.00 37.00 34.00 39.00 39.00 37.00 35.00 40.00 35.00 39.00 18.00 72.00 70.00 52.00 43.00 77.00 68.00 47.00 78.00 72.00 13.00 46.00 19.00 72.00 69.00 42.00
4.00 2.00 5.00 6.00 7.00 8.00 26.00 22.00 28.00 26.00 29.00 26.00 28.00 30.00 19.00 17.00 19.00 17.00 22.00 21.00 19.00 23.00 21.00 26.00 24.00 43.00 40.00 42.00 39.00 47.00 42.00 47.00 48.00 46.00 35.00 33.00 34.00 31.00 36.00 37.00 35.00 32.00 37.00 33.00 36.00 15.00 70.00 68.00 51.00 44.00 75.00 65.00 46.00 76.00 69.00 10.00 45.00 16.00 69.00 66.00 42.00
3.00 2.00 2.00 5.00 5.00 21.00 18.00 24.00 22.00 25.00 22.00 25.00 27.00 21.00 19.00 20.00 18.00 24.00 22.00 20.00 24.00 22.00 27.00 24.00 45.00 41.00 43.00 40.00 48.00 42.00 47.00 49.00 46.00 39.00 37.00 37.00 34.00 39.00 40.00 38.00 35.00 40.00 36.00 39.00 19.00 73.00 71.00 51.00 41.00 77.00 69.00 46.00 78.00 72.00 14.00 45.00 20.00 72.00 70.00 40.00
2.00 4.00 5.00 5.00 24.00 20.00 26.00 24.00 27.00 23.00 26.00 28.00 18.00 17.00 18.00 16.00 21.00 20.00 18.00 22.00 20.00 25.00 22.00 43.00 39.00 41.00 38.00 46.00 40.00 46.00 47.00 45.00 36.00 34.00 34.00 31.00 36.00 37.00 35.00 32.00 37.00 33.00 36.00 16.00 70.00 68.00 50.00 42.00 75.00 66.00 44.00 76.00 69.00 12.00 44.00 17.00 69.00 67.00 40.00
2.00 3.00 3.00 21.00 17.00 23.00 21.00 24.00 21.00 24.00 25.00 19.00 17.00 18.00 16.00 22.00 20.00 18.00 21.00 19.00 25.00 22.00 43.00 39.00 41.00 37.00 46.00 40.00 45.00 47.00 44.00 38.00 36.00 36.00 33.00 38.00 38.00 36.00 33.00 39.00 34.00 37.00 18.00 71.00 69.00 49.00 39.00 76.00 68.00 43.00 76.00 70.00 14.00 43.00 20.00 70.00 69.00 38.00
5.00 3.00 19.00 16.00 21.00 20.00 23.00 20.00 23.00 25.00 21.00 19.00 20.00 18.00 23.00 22.00 19.00 23.00 21.00 26.00 23.00 44.00 41.00 42.00 39.00 48.00 41.00 46.00 48.00 45.00 40.00 38.00 38.00 35.00 40.00 40.00 38.00 35.00 41.00 36.00 39.00 20.00 73.00 71.00 50.00 39.00 77.00 70.00 44.00 78.00 72.00 16.00 44.00 22.00 72.00 71.00 38.00
3.00 21.00 15.00 23.00 20.00 24.00 19.00 21.00 24.00 16.00 14.00 15.00 13.00 18.00 17.00 14.00 18.00 16.00 21.00 18.00 39.00 36.00 37.00 34.00 43.00 36.00 42.00 43.00 40.00 36.00 34.00 34.00 31.00 36.00 36.00 34.00 31.00 36.00 31.00 35.00 16.00 68.00 67.00 46.00 37.00 72.00 66.00 40.00 73.00 68.00 14.00 39.00 19.00 68.00 66.00 35.00
18.00 14.00 20.00 18.00 21.00 18.00 20.00 22.00 19.00 17.00 18.00 15.00 21.00 19.00 17.00 20.00 18.00 24.00 20.00 42.00 38.00 39.00 36.00 45.00 38.00 43.00 45.00 42.00 39.00 37.00 37.00 34.00 39.00 39.00 37.00 34.00 39.00 34.00 38.00 19.00 71.00 70.00 48.00 36.00 75.00 69.00 41.00 76.00 71.00 17.00 41.00 22.00 71.00 69.00 35.00
10.00 3.00 7.00 5.00 12.00 14.00 11.00 35.00 33.00 33.00 30.00 35.00 33.00 30.00 33.00 30.00 35.00 30.00 52.00 47.00 48.00 43.00 53.00 44.00 50.00 51.00 47.00 55.00 53.00 53.00 50.00 55.00 55.00 53.00 50.00 55.00 50.00 53.00 38.00 85.00 85.00 55.00 25.00 87.00 86.00 46.00 88.00 85.00 36.00 45.00 41.00 85.00 85.00 33.00
10.00 5.00 10.00 4.00 7.00 8.00 26.00 24.00 23.00 20.00 25.00 23.00 20.00 23.00 20.00 25.00 20.00 41.00 37.00 37.00 33.00 43.00 34.00 40.00 41.00 37.00 46.00 44.00 44.00 41.00 46.00 45.00 43.00 40.00 45.00 40.00 43.00 30.00 75.00 75.00 44.00 22.00 77.00 77.00 36.00 77.00 75.00 30.00 35.00 34.00 75.00 75.00 25.00
5.00 2.00 10.00 12.00 8.00 35.00 33.00 33.00 30.00 35.00 33.00 30.00 33.00 30.00 35.00 30.00 51.00 46.00 47.00 42.00 52.00 43.00 49.00 50.00 45.00 56.00 54.00 54.00 51.00 55.00 55.00 53.00 50.00 55.00 50.00 53.00 39.00 85.00 85.00 53.00 22.00 86.00 86.00 44.00 87.00 85.00 37.00 43.00 42.00 85.00 85.00 31.00
5.00 5.00 7.00 5.00 31.00 29.00 29.00 26.00 30.00 28.00 25.00 28.00 25.00 30.00 25.00 46.00 41.00 41.00 37.00 47.00 38.00 43.00 44.00 40.00 52.00 50.00 49.00 46.00 51.00 50.00 49.00 46.00 50.00 45.00 48.00 36.00 80.00 80.00 48.00 20.00 81.00 82.00 39.00 82.00 80.00 35.00 38.00 39.00 80.00 80.00 26.00
10.00 11.00 7.00 36.00 34.00 33.00 31.00 35.00 33.00 30.00 33.00 30.00 35.00 30.00 50.00 46.00 46.00 41.00 52.00 42.00 48.00 49.00 44.00 57.00 55.00 54.00 51.00 56.00 55.00 53.00 50.00 55.00 50.00 53.00 40.00 85.00 85.00 52.00 20.00 86.00 87.00 43.00 86.00 85.00 39.00 42.00 43.00 85.00 85.00 29.00
3.00 5.00 27.00 25.00 25.00 22.00 25.00 24.00 21.00 23.00 20.00 25.00 20.00 40.00 35.00 36.00 31.00 42.00 32.00 38.00 39.00 34.00 48.00 46.00 45.00 42.00 47.00 46.00 44.00 41.00 46.00 41.00 43.00 33.00 75.00 75.00 42.00 18.00 76.00 78.00 34.00 76.00 75.00 33.00 33.00 37.00 75.00 75.00 21.00
5.00 29.00 27.00 26.00 23.00 26.00 25.00 22.00 24.00 21.00 25.00 20.00 40.00 35.00 35.00 30.00 41.00 31.00 37.00 38.00 33.00 49.00 47.00 46.00 43.00 48.00 47.00 45.00 42.00 46.00 42.00 44.00 35.00 75.00 75.00 41.00 15.00 75.00 79.00 32.00 76.00 75.00 36.00 31.00 39.00 75.00 75.00 19.00
33.00 31.00 30.00 28.00 31.00 29.00 26.00 29.00 26.00 30.00 25.00 45.00 40.00 40.00 35.00 46.00 36.00 42.00 42.00 38.00 53.00 52.00 51.00 48.00 52.00 52.00 50.00 47.00 51.00 46.00 49.00 39.00 80.00 80.00 46.00 15.00 80.00 83.00 37.00 81.00 80.00 39.00 36.00 43.00 80.00 80.00 22.00
2.00 2.00 5.00 5.00 5.00 7.00 7.00 8.00 10.00 11.00 25.00 22.00 24.00 22.00 29.00 25.00 29.00 31.00 30.00 20.00 18.00 18.00 15.00 20.00 20.00 18.00 15.00 20.00 15.00 18.00 10.00 51.00 50.00 33.00 41.00 56.00 50.00 30.00 57.00 51.00 15.00 30.00 15.00 51.00 50.00 32.00
2.00 3.00 5.00 5.00 5.00 7.00 7.00 10.00 10.00 26.00 23.00 25.00 23.00 30.00 25.00 30.00 32.00 30.00 22.00 20.00 20.00 17.00 22.00 22.00 20.00 17.00 22.00 17.00 20.00 10.00 53.00 52.00 34.00 40.00 58.00 52.00 30.00 59.00 53.00 15.00 30.00 15.00 53.00 52.00 31.00
3.00 3.00 3.00 4.00 5.00 5.00 8.00 8.00 24.00 21.00 23.00 21.00 28.00 24.00 28.00 30.00 28.00 23.00 21.00 20.00 17.00 22.00 22.00 20.00 17.00 22.00 17.00 20.00 12.00 53.00 52.00 32.00 38.00 57.00 53.00 28.00 58.00 52.00 17.00 28.00 17.00 52.00 52.00 30.00
5.00 4.00 3.00 5.00 5.00 9.00 8.00 26.00 23.00 25.00 22.00 30.00 25.00 30.00 31.00 29.00 25.00 24.00 23.00 20.00 25.00 25.00 23.00 20.00 25.00 20.00 23.00 13.00 56.00 55.00 33.00 36.00 60.00 56.00 29.00 60.00 55.00 17.00 29.00 18.00 55.00 55.00 29.00
2.00 5.00 2.00 5.00 5.00 7.00 21.00 18.00 19.00 17.00 25.00 20.00 25.00 26.00 25.00 22.00 20.00 19.00 17.00 21.00 20.00 18.00 15.00 20.00 15.00 18.00 15.00 50.00 50.00 28.00 38.00 54.00 52.00 25.00 55.00 50.00 20.00 25.00 20.00 50.00 50.00 28.00
3.00 2.00 3.00 5.00 5.00 22.00 19.00 20.00 18.00 26.00 21.00 25.00 27.00 25.00 24.00 22.00 21.00 18.00 23.00 22.00 20.00 17.00 22.00 17.00 20.00 15.00 52.00 52.00 29.00 36.00 56.00 54.00 25.00 56.00 52.00 20.00 25.00 20.00 52.00 52.00 27.00
3.00 2.00 7.00 5.00 25.00 21.00 22.00 19.00 28.00 22.00 27.00 29.00 26.00 26.00 25.00 24.00 21.00 25.00 25.00 23.00 20.00 25.00 20.00 23.00 15.00 55.00 55.00 31.00 34.00 58.00 57.00 26.00 59.00 55.00 20.00 26.00 20.00 55.00 55.00 26.00
3.00 3.00 4.00 21.00 17.00 19.00 16.00 24.00 19.00 24.00 25.00 24.00 25.00 23.00 22.00 19.00 23.00 23.00 21.00 18.00 22.00 17.00 20.00 17.00 52.00 52.00 28.00 35.00 55.00 54.00 23.00 56.00 52.00 22.00 23.00 22.00 52.00 52.00 25.00
5.00 3.00 23.00 19.00 21.00 18.00 26.00 20.00 25.00 27.00 25.00 27.00 25.00 25.00 22.00 26.00 25.00 24.00 21.00 25.00 20.00 23.00 17.00 55.00 55.00 29.00 33.00 58.00 57.00 24.00 58.00 55.00 22.00 24.00 22.00 55.00 55.00 24.00
5.00 18.00 14.00 15.00 13.00 21.00 15.00 20.00 22.00 20.00 25.00 23.00 22.00 19.00 23.00 22.00 20.00 18.00 21.00 17.00 18.00 20.00 50.00 50.00 24.00 35.00 52.00 53.00 20.00 53.00 50.00 25.00 20.00 25.00 50.00 50.00 23.00
22.00 18.00 19.00 15.00 25.00 18.00 23.00 25.00 22.00 29.00 27.00 26.00 23.00 27.00 26.00 25.00 22.00 26.00 21.00 23.00 20.00 55.00 55.00 27.00 31.00 57.00 58.00 21.00 57.00 55.00 25.00 21.00 25.00 55.00 55.00 21.00
5.00 5.00 10.00 5.00 11.00 9.00 11.00 14.00 25.00 25.00 23.00 23.00 22.00 20.00 20.00 20.00 18.00 18.00 16.00 33.00 35.00 37.00 10.00 45.00 35.00 46.00 14.00 35.00 35.00 40.00 15.00 37.00 35.00 38.00 29.00
2.00 5.00 7.00 7.00 8.00 10.00 11.00 26.00 26.00 24.00 23.00 24.00 22.00 21.00 20.00 20.00 18.00 17.00 31.00 40.00 41.00 10.00 40.00 40.00 50.00 11.00 40.00 40.00 38.00 12.00 36.00 40.00 43.00 25.00
5.00 5.00 5.00 6.00 8.00 9.00 28.00 28.00 26.00 25.00 26.00 24.00 23.00 22.00 22.00 20.00 19.00 33.00 40.00 42.00 8.00 39.00 40.00 51.00 10.00 40.00 41.00 39.00 10.00 38.00 41.00 43.00 24.00
10.00 3.00 7.00 9.00 8.00 30.00 29.00 28.00 26.00 28.00 26.00 25.00 24.00 25.00 22.00 22.00 32.00 45.00 47.00 12.00 34.00 45.00 55.00 8.00 45.00 46.00 38.00 8.00 37.00 46.00 48.00 19.00
10.00 5.00 7.00 11.00 30.00 30.00 28.00 28.00 27.00 25.00 25.00 25.00 23.00 23.00 21.00 38.00 36.00 38.00 5.00 44.00 35.00 49.00 12.00 35.00 37.00 44.00 13.00 42.00 37.00 40.00 28.00
5.00 7.00 5.00 33.00 32.00 30.00 29.00 30.00 29.00 28.00 26.00 27.00 25.00 24.00 35.00 46.00 48.00 10.00 34.00 45.00 57.00 5.00 45.00 46.00 41.00 5.00 40.00 46.00 49.00 18.00
2.00 5.00 34.00 33.00 32.00 31.00 31.00 29.00 29.00 28.00 27.00 26.00 25.00 39.00 42.00 44.00 4.00 39.00 40.00 55.00 6.00 40.00 43.00 45.00 7.00 43.00 43.00 46.00 23.00
5.00 36.00 35.00 33.00 33.00 33.00 31.00 31.00 30.00 29.00 28.00 27.00 41.00 43.00 45.00 4.00 39.00 40.00 56.00 6.00 40.00 43.00 47.00 7.00 45.00 43.00 47.00 23.00
38.00 37.00 35.00 34.00 35.00 33.00 32.00 31.00 31.00 29.00 29.00 40.00 47.00 50.00 9.00 34.00 45.00 60.00 1.00 45.00 48.00 46.00 2.00 45.00 48.00 51.00 18.00
2.00 2.00 5.00 3.00 5.00 5.00 7.00 7.00 8.00 9.00 20.00 35.00 32.00 35.00 60.00 43.00 30.00 38.00 44.00 34.00 26.00 38.00 21.00 34.00 31.00 48.00
2.00 3.00 3.00 5.00 5.00 5.00 7.00 7.00 9.00 18.00 37.00 34.00 35.00 58.00 44.00 32.00 37.00 45.00 36.00 25.00 38.00 19.00 36.00 33.00 46.00
3.00 2.00 3.00 3.00 4.00 5.00 5.00 7.00 19.00 36.00 33.00 33.00 57.00 43.00 32.00 35.00 44.00 35.00 25.00 36.00 20.00 35.00 32.00 45.00
5.00 5.00 4.00 3.00 7.00 5.00 7.00 16.00 38.00 36.00 33.00 55.00 45.00 35.00 34.00 46.00 38.00 23.00 35.00 18.00 38.00 35.00 43.00
2.00 2.00 5.00 4.00 6.00 6.00 21.00 34.00 31.00 32.00 58.00 41.00 31.00 35.00 42.00 33.00 28.00 36.00 23.00 33.00 30.00 45.00
2.00 5.00 2.00 5.00 4.00 22.00 33.00 31.00 30.00 57.00 39.00 31.00 34.00 41.00 32.00 29.00 34.00 24.00 32.00 30.00 44.00
3.00 2.00 3.00 4.00 20.00 34.00 32.00 30.00 55.00 41.00 33.00 33.00 42.00 34.00 27.00 33.00 22.00 34.00 32.00 43.00
5.00 2.00 5.00 18.00 37.00 35.00 30.00 53.00 43.00 36.00 31.00 44.00 37.00 25.00 32.00 20.00 37.00 35.00 41.00
5.00 2.00 23.00 32.00 30.00 28.00 56.00 38.00 32.00 32.00 39.00 31.00 30.00 32.00 25.00 31.00 30.00 43.00
3.00 19.00 37.00 35.00 28.00 52.00 42.00 37.00 30.00 43.00 36.00 26.00 30.00 22.00 36.00 35.00 39.00
22.00 33.00 32.00 26.00 53.00 38.00 34.00 29.00 40.00 32.00 29.00 30.00 25.00 32.00 32.00 40.00
0 1127
499 553
0 1129
584 656
950 1026
683 741
0 1130
1057 1125
958 1040
779 845
869 941
176 228
1042 1106
0 1106
0 1109
358 416
0 1112
0 1110
455 513
0 1136
0 1135
0 1133
13 70
0 1131
158 232
672 744
263 311
438 510
0 1126
0 1125
0 1112
0 1114
355 437
0 1113
655 725
0 1110
569 619
472 532
0 1105
143 199
0 1127
0 1126
789 849
0 1124
0 1123
0 1125
698 754
0 1122
1011 1073
0 1123
0 1236
0 1236
0 1236
0 1236
0 1236
0 1236
0 1236
0 1236
0 1236
0 1236
0 1236
0 1236
0 1236
0 1236
0 1236
0 1236
0 1236
0 1236
0 1236
0 1236
0 1236
0 1236
0 1236
55.00 53.00 42.00 49.00 61.00 50.00 40.00 62.00 54.00 7.00 40.00 5.00 54.00 51.00 42.00 0 0 0 0 0 0 0 0
10 30 10 10 10 20 20 20 10 10 10 20 30 10 40 40 20 20 10 10 20 20 10 10 40 10 10 20 10 10 20 30 40 20 10 10 20 30 20 10 10 20 10 10 10 30 10 10 10 10